c Random generated cnf formula, satisfiable: true
p cnf 10 50
1 -6 -3 0
5 1 -6 0
7 2 -9 0
-10 7 5 0
6 10 5 0
7 -9 -10 0
-9 7 8 0
-10 2 -1 0
-4 8 6 0
-6 -1 2 0
-10 -2 -8 0
5 4 8 0
2 -10 -1 0
2 6 4 0
4 6 2 0
2 9 10 0
10 1 -6 0
-8 -1 -6 0
10 -4 -1 0
-3 -1 4 0
4 -1 10 0
9 -8 -5 0
-5 -1 6 0
3 -4 -5 0
-4 -5 6 0
-7 10 -6 0
7 -3 -2 0
-10 4 -3 0
-8 4 -7 0
-4 -7 -8 0
6 -1 4 0
-2 1 -3 0
-6 -2 9 0
2 8 -5 0
2 7 -5 0
-3 1 5 0
-7 3 -5 0
-4 7 2 0
7 4 3 0
8 -7 -5 0
-3 7 6 0
10 9 -7 0
-1 6 8 0
7 -2 -3 0
-7 -1 6 0
-8 3 -5 0
6 7 -9 0
2 6 -3 0
-9 1 7 0
1 10 -2 0
